certificates/rado_a11_c235_N28.cnf
c Rad2 upper bound instance: x1 + 11*x2 - x3 = 235, interval [1,28]
p cnf 28 140
1 8 22 0
-1 -8 -22 0
1 19 23 0
-1 -19 -23 0
2 9 22 0
-2 -9 -22 0
2 20 23 0
-2 -20 -23 0
3 10 22 0
-3 -10 -22 0
3 21 23 0
-3 -21 -23 0
4 11 22 0
-4 -11 -22 0
4 22 23 0
-4 -22 -23 0
1 5 21 0
-1 -5 -21 0
5 12 22 0
-5 -12 -22 0
5 23 0
-5 -23 0
2 6 21 0
-2 -6 -21 0
6 13 22 0
-6 -13 -22 0
6 23 24 0
-6 -23 -24 0
3 7 21 0
-3 -7 -21 0
7 14 22 0
-7 -14 -22 0
7 23 25 0
-7 -23 -25 0
4 8 21 0
-4 -8 -21 0
8 15 22 0
-8 -15 -22 0
8 23 26 0
-8 -23 -26 0
5 9 21 0
-5 -9 -21 0
9 16 22 0
-9 -16 -22 0
9 23 27 0
-9 -23 -27 0
6 10 21 0
-6 -10 -21 0
10 17 22 0
-10 -17 -22 0
10 23 28 0
-10 -23 -28 0
7 11 21 0
-7 -11 -21 0
11 18 22 0
-11 -18 -22 0
8 12 21 0
-8 -12 -21 0
12 19 22 0
-12 -19 -22 0
9 13 21 0
-9 -13 -21 0
13 20 22 0
-13 -20 -22 0
10 14 21 0
-10 -14 -21 0
14 21 22 0
-14 -21 -22 0
11 15 21 0
-11 -15 -21 0
15 22 0
-15 -22 0
1 16 20 0
-1 -16 -20 0
12 16 21 0
-12 -16 -21 0
16 22 23 0
-16 -22 -23 0
2 17 20 0
-2 -17 -20 0
13 17 21 0
-13 -17 -21 0
17 22 24 0
-17 -22 -24 0
3 18 20 0
-3 -18 -20 0
14 18 21 0
-14 -18 -21 0
18 22 25 0
-18 -22 -25 0
4 19 20 0
-4 -19 -20 0
15 19 21 0
-15 -19 -21 0
19 22 26 0
-19 -22 -26 0
5 20 0
-5 -20 0
16 20 21 0
-16 -20 -21 0
20 22 27 0
-20 -22 -27 0
6 20 21 0
-6 -20 -21 0
17 21 0
-17 -21 0
21 22 28 0
-21 -22 -28 0
7 20 22 0
-7 -20 -22 0
18 21 22 0
-18 -21 -22 0
8 20 23 0
-8 -20 -23 0
19 21 23 0
-19 -21 -23 0
9 20 24 0
-9 -20 -24 0
20 21 24 0
-20 -21 -24 0
10 20 25 0
-10 -20 -25 0
21 25 0
-21 -25 0
11 20 26 0
-11 -20 -26 0
21 22 26 0
-21 -22 -26 0
1 19 27 0
-1 -19 -27 0
12 20 27 0
-12 -20 -27 0
21 23 27 0
-21 -23 -27 0
2 19 28 0
-2 -19 -28 0
13 20 28 0
-13 -20 -28 0
21 24 28 0
-21 -24 -28 0
