certificates/rado_a11_c235_N28.drat
-23 21 -27 0
21 -27 -28 0
-21 -28 0
-28 0
21 0
-17 0
-25 0
20 27 0
-20 0
5 0
10 0
2 0
13 0
27 0
-1 0
-23 0
-9 0
-6 0
-14 0
19 0
16 0
7 0
8 0
24 0
-15 0
-12 0
-3 0
-11 0
-4 0
22 0
18 0
26 0
0
